array [1..8, 1..8] of int: w;

w =
%[
%|0,4,4,4,4,0,0,0,
%|0,4,0,4,4,4,4,2,
%|0,4,0,0,0,0,0,2,
%|0,4,0,2,0,0,0,0,
%|1,4,0,2,0,0,0,0,
%|0,0,0,0,2,0,0,0,
%|0,0,0,0,2,0,0,0,
%|0,0,0,0,1,0,0,0,
%|];

%[
%|0,0,0,1,1,0,0,0,
%|0,0,0,3,0,0,0,0,
%|3,3,3,3,0,0,0,1,
%|0,0,0,3,3,0,0,0,
%|0,0,0,0,3,2,2,0,
%|0,3,3,3,3,0,0,0,
%|0,0,0,0,0,0,0,0,
%|0,0,0,0,0,0,0,0,
%|];

%[
%|0,0,0,3,3,3,0,0,
%|0,0,0,2,0,0,1,0,
%|1,0,0,2,0,0,0,0,
%|0,0,0,0,0,2,0,0,
%|1,0,0,1,0,2,0,0,
%|0,0,0,1,0,0,0,0,
%|0,0,0,0,0,0,0,0,
%|0,0,0,0,0,0,0,0,
%|];

%[
%|0,0,0,0,0,1,0,0,
%|0,0,0,2,0,0,3,0,
%|0,0,0,2,0,0,3,0,
%|0,0,3,0,3,1,3,0,
%|0,0,3,0,3,0,3,0,
%|0,0,3,0,3,0,3,0,
%|0,0,0,0,0,0,3,0,
%|3,3,3,0,0,0,0,0,
%|];

%[
%|0,0,0,0,0,0,0,0,
%|0,1,0,1,0,2,0,0,
%|3,3,3,0,0,2,0,0,
%|0,0,0,0,1,0,0,0,
%|0,0,3,3,3,0,0,0,
%|0,0,1,0,0,0,0,0,
%|3,3,3,0,0,0,0,0,
%|0,0,0,0,0,0,0,0,
%|];

%[
%|0,0,0,0,0,0,0,0,
%|0,0,0,0,0,0,0,0,
%|0,0,0,0,0,0,0,0,
%|0,0,0,0,0,0,0,0,
%|0,0,0,0,0,0,0,0,
%|0,0,0,0,0,0,0,0,
%|0,0,0,0,0,0,0,0,
%|0,0,0,0,0,0,0,0,
%|];

